NAME : XML100_2122_18
DIMENSION : 101
NB_CLUSTERS : 33
CLUSTERING_ALG : KMeans
CLUSTERING_PARAMS : k(35)
CLUSTERS
1 0
2 56 77 82 84 85 89
3 39 78
4 26 96
5 4 49
6 8 27 47 70
7 73 83
8 66 76
9 43 74 98
10 1 11 42 55 92
11 24 53 88 91
12 21 95
13 5 28
14 38 58 75 81
15 57 60 63 80 87 100
16 10 19 90
17 12 18 32
18 9 50
19 51 52 86
20 40 79 93
21 22 31 33 69
22 37 64
23 20 46 54
24 14 59 71 72
25 23 34 35 48
26 30 36 65
27 6 25 99
28 15 61 94
29 3 7
30 45 67
31 2 13 68
32 16 29 62
33 17 41 44 97
EOF